NAME : amz1599.83932_82432.tour
COMMENT : Cost = 83932_82432
COMMENT : Found by LKH-AMZ [Keld Helsgaun] Sun May 11 14:56:21 2025
COMMENT : TW viol.: 0 #: 0
TYPE : TOUR
DIMENSION : 102
TOUR_SECTION
41
85
82
99
89
69
8
24
91
19
26
48
37
42
31
75
27
61
74
35
44
73
77
100
93
71
60
84
76
32
38
6
92
1
9
36
62
12
46
2
10
97
11
3
56
49
101
4
64
79
87
90
16
59
47
17
33
23
53
15
102
29
30
94
63
54
14
20
45
72
98
25
66
81
13
58
40
51
21
83
43
88
34
22
65
18
70
86
95
55
78
7
80
52
39
67
5
50
57
68
96
28
-1
EOF
